p cnf 15 65
-13 -6 -12 0
-1 -7 -6 0
3 -5 -4 0
-3 2 4 0
-2 -10 -14 0
10 -13 1 0
15 2 -6 0
-4 -8 -5 0
3 9 15 0
-10 -1 13 0
-1 15 -2 0
2 6 -3 0
-4 3 -7 0
-1 -6 8 0
8 -1 -11 0
-13 4 -14 0
7 15 -13 0
5 -10 11 0
-14 3 11 0
-12 15 13 0
5 -8 12 0
14 10 -9 0
-13 -14 4 0
14 8 2 0
12 -8 3 0
-12 -11 -15 0
-11 -4 -12 0
7 -3 6 0
-1 6 8 0
-8 6 2 0
-7 -14 11 0
-14 -1 5 0
-8 3 7 0
-12 10 -7 0
-12 15 9 0
3 14 8 0
3 -10 9 0
13 -3 -9 0
11 -12 14 0
-13 1 -6 0
-15 -4 12 0
5 -3 11 0
-14 -13 -10 0
-13 6 15 0
5 13 -6 0
-1 -14 -5 0
12 2 -7 0
13 -2 4 0
14 9 -1 0
-8 3 -2 0
5 -6 7 0
-6 2 -9 0
1 -12 -11 0
9 4 12 0
12 13 -8 0
-4 11 12 0
-4 6 11 0
14 -15 3 0
6 14 -12 0
-1 -8 5 0
2 3 -4 0
12 6 -1 0
3 -12 13 0
14 -1 15 0
4 -14 13 0
